
set I:= 2	3	4 5 6	7 	8	9	10	11 12 13	14	15 16	17	18	19	20 21 22 
23 24 25 26 27 28 29 30 31 32 33 34 35 36 37 38 39 40 41 42 43 44 45 46 47 48 49 50 51
52 53 54 55 56 57 58 59 60  ;

set Nodos:= 1 2	3	4 5 6	7 	8	9	10	11 12 13	14	15 16	17	18	19	20 21 22
23 24 25 26 27 28 29 30 31 32 33 34 35 36 37 38 39 40 41 42 43 44 45 46 47 48 49 50 51
52 53 54 55 56 57 58 59 60 ;

set K:= 1 2 3;
set R:= A B C;
set T:= A B C;


param: xcoord	ycoord :=
1	27	93
2	33	27
3	29	39
4	7	81
5	1	59
6	49	9
7	21	53
8	79	89
9	81	83
10	85	11
11	45	9
12	7	65
13	95	27
14	81	85
15	37	81
16	69	69
17	15	95
18	89	75
19	33	93
20	57	83
21	11	95
22	3	57
23	45	11
24	43	61
25	35	43
26	19	83
27	83	69
28	85	77
29	19	39
30	83	87
31	1	13
32	15	39
33	83	17
34	41	97
35	31	61
36	59	69
37	29	15
38	93	83
39	63	97
40	65	57
41	15	69
42	31	97
43	57	9
44	85	37
45	21	29
46	53	11
47	15	77
48	41	69
49	45	17
50	13	25
51	63	57
52	95	5
53	55	91
54	3	31
55	47	7
56	61	69
57	85	35
58	89	81
59	45	47
60	65	93

;

param Q:=
1   20000
2   20000
3   20000
;

param P:=
A   8000
B   12000
C   16000
;


param alfa:=
A   1
B    .70
C    .30
;

param q:  A   B   C:=
1	0	0	0
2	800	0	0
3	0	100	0
4	0	0	350
5	550	0	0
6	0	450	0
7	0	0	850
8	1050	0	0
9	0	1150	0
10	0	0	500
11	300	0	0
12	0	950	0
13	0	0	900
14	1000	0	0
15	0	650	0
16	0	0	250
17	550	0	0
18	0	1200	0
19	0	0	100
20	150	0	0
21	0	50	0
22	0	0	250
23	1000	0	0
24	0	1150	0
25	0	0	1200
26	900	0	0
27	0	950	0
28	0	0	100
29	850	0	0
30	0	850	0
31	0	0	450
32	550	0	0
33	0	100	0
34	0	0	300
35	450	0	0
36	0	250	0
37	0	0	450
38	100	0	0
39	0	700	0
40	0	0	950
41	550	0	0
42	0	1050	0
43	0	0	1000
44	1050	0	0
45	0	900	0
46	0	0	2400
47	50	0	0
48	0	850	0
49	0	0	2100
50	100	0	0
51	0	200	0
52	0	0	1200
53	900	0	0
54	0	1050	0
55	0	0	550
56	450	0	0
57	0	900	0
58	0	0	1100
59	450	0	0
60	0	1150	0



;

param a:  A   B   C:=
1	0	0	0
2	1	0	0
3	0	1	0
4	0	0	1
5	1	0	0
6	0	1	0
7	0	0	1
8	1	0	0
9	0	1	0
10	0	0	1
11	1	0	0
12	0	1	0
13	0	0	1
14	1	0	0
15	0	1	0
16	0	0	1
17	1	0	0
18	0	1	0
19	0	0	1
20	1	0	0
21	0	1	0
22	0	0	1
23	1	0	0
24	0	1	0
25	0	0	1
26	1	0	0
27	0	1	0
28	0	0	1
29	1	0	0
30	0	1	0
31	0	0	1
32	1	0	0
33	0	1	0
34	0	0	1
35	1	0	0
36	0	1	0
37	0	0	1
38	1	0	0
39	0	1	0
40	0	0	1
41	1	0	0
42	0	1	0
43	0	0	1
44	1	0	0
45	0	1	0
46	0	0	1
47	1	0	0
48	0	1	0
49	0	0	1
50	1	0	0
51	0	1	0
52	0	0	1
53	1	0	0
54	0	1	0
55	0	0	1
56	1	0	0
57	0	1	0
58	0	0	1
59	1	0	0
60	0	1	0


;

param qu :=
1	0
2	800
3	100
4	350
5	550
6	450
7	850
8	1050
9	1150
10	500
11	300
12	950
13	900
14	1000
15	650
16	250
17	550
18	1200
19	100
20	150
21	50
22	250
23	1000
24	1150
25	1200
26	900
27	950
28	100
29	850
30	850
31	450
32	550
33	100
34	300
35	450
36	250
37	450
38	100
39	700
40	950
41	550
42	1050
43	1000
44	1050
45	900
46	2400
47	50
48	850
49	2100
50	100
51	200
52	1200
53	900
54	1050
55	550
56	450
57	900
58	1100
59	450
60	1150

;

set IT:=
(	2	,	A	)
(	3	,	B	)
(	4	,	C	)
(	5	,	A	)
(	6	,	B	)
(	7	,	C	)
(	8	,	A	)
(	9	,	B	)
(	10	,	C	)
(	11	,	A	)
(	12	,	B	)
(	13	,	C	)
(	14	,	A	)
(	15	,	B	)
(	16	,	C	)
(	17	,	A	)
(	18	,	B	)
(	19	,	C	)
(	20	,	A	)
(	21	,	B	)
(	22	,	C	)
(	23	,	A	)
(	24	,	B	)
(	25	,	C	)
(	26	,	A	)
(	27	,	B	)
(	28	,	C	)
(	29	,	A	)
(	30	,	B	)
(	31	,	C	)
(	32	,	A	)
(	33	,	B	)
(	34	,	C	)
(	35	,	A	)
(	36	,	B	)
(	37	,	C	)
(	38	,	A	)
(	39	,	B	)
(	40	,	C	)
(	41	,	A	)
(	42	,	B	)
(	43	,	C	)
(	44	,	A	)
(	45	,	B	)
(	46	,	C	)
(	47	,	A	)
(	48	,	B	)
(	49	,	C	)
(	50	,	A	)
(	51	,	B	)
(	52	,	C	)
(	53	,	A	)
(	54	,	B	)
(	55	,	C	)
(	56	,	A	)
(	57	,	B	)
(	58	,	C	)
(	59	,	A	)
(	60	,	B	)

;